n_res = 5;
n_events = 102;
n_prec = 285;
source = 1;
sink = 102;
min_lvl = [-2, -16, -20, -13, -1];
max_lvl = [12, 8, -3, 3, 19];
rr = [| 0, -1, 1, 0, 2, 0, 0, -1, 1, -1, 2, 0, 1, 2, 0, 0, -1, -1, 0, 0, 1, -1, 1, 1, 0, 1, 0, 0, 2, 1, 2, 2, -2, -1, 0, 0, 0, 1, 0, 0, -1, 0, 2, 0, 2, -1, 2, -2, 0, -1, 0, -1, 2, 0, 2, -1, -2, 1, -2, -2, 0, -2, 0, -2, 2, 0, 0, 0, 1, 0, 0, 1, 0, 1, 0, 0, -1, -1, -2, -1, -2, 2, 0, 0, 0, 2, 0, 2, 1, 1, 2, -1, -1, -2, -1, 2, 0, 0, 1, 0, -1, 0
      | 0, -1, 0, 0, -1, -2, 0, 1, 2, 2, -2, 0, -2, 0, 1, -1, -1, 0, 1, 0, -2, 2, 2, 0, 0, -2, 0, 0, 0, 0, 0, -2, -2, -2, 1, -2, 0, -2, 1, -1, -1, -2, -2, -1, 2, 1, 0, -2, 2, 1, 0, 0, -1, -1, 1, -1, -1, -1, -1, -1, -1, 1, -2, 0, 1, 0, -1, 0, 2, -2, 0, 2, -1, 0, 0, -2, 0, 0, 0, 1, 0, 2, 1, 0, -2, 1, 0, 0, 0, 1, 2, 2, 2, 2, 0, 1, 0, -2, 0, -2, 1, 0
      | 0, -1, 2, 0, -1, -2, 2, -2, 0, -2, 1, 0, 0, -1, 0, -1, -1, -2, 0, 1, 0, 0, 0, -1, 2, 0, 2, 0, 0, -2, -1, 0, 0, -2, -1, 0, 2, 0, 0, -2, 0, 0, 1, -2, 0, -2, -1, 2, 0, 0, 2, -1, -1, 0, -1, 0, 1, 0, 0, 2, 0, 2, 0, 0, 1, -1, -1, -2, 2, 0, 0, 0, 0, -2, 0, -1, -2, -1, -2, -1, 2, 1, 0, 0, 0, -1, -1, -1, 0, 1, 2, -1, 1, -2, -1, 0, 0, 0, -1, 0, 2, 0
      | 0, 0, 1, 0, -1, 0, -1, -2, 0, 0, -2, 0, 0, 0, 0, 1, 2, 1, 0, -2, 0, 2, -1, 1, 1, -2, 0, 0, 0, 1, 0, -2, 1, -2, 2, 0, 0, 2, 0, 0, 1, -2, 2, -1, 1, 2, -2, 0, 1, 2, 0, 1, 0, 0, -2, -2, -1, 0, 0, 0, 1, 0, 0, 1, -1, 0, 2, 0, -2, 1, 0, -2, -2, 1, -1, -2, 0, -1, -2, -1, 2, -2, 0, 0, 0, -2, 0, -2, 2, 0, -1, -2, 0, 1, 0, 1, 0, 0, 0, 0, 0, 0
      | 0, -1, 2, 0, 0, 0, -1, 1, 0, 1, -2, 0, 0, -1, -2, 2, 2, 2, 0, 0, 0, 2, -1, -1, 0, 1, 0, 1, 1, -1, 0, 1, 0, 0, 0, 0, 0, 2, 0, -1, 1, 2, 1, -2, -1, 0, 2, 0, -1, -2, 0, 1, -2, 2, 1, -2, -1, 0, 0, 0, 0, 2, 0, -1, -1, 0, 0, 1, 2, 0, 1, -2, 0, -1, 0, -1, 2, -1, 2, 0, -2, 0, 0, 2, 0, 2, 2, 0, 0, 2, 0, -2, 0, -1, 2, 2, 0, 0, 0, 0, 0, 0 |];
prec = [| 1, 0, 10
        | 1, 0, 5
        | 1, 0, 3
        | 1, 0, 4
        | 1, 0, 2
        | 1, 0, 9
        | 1, 0, 8
        | 1, 0, 7
        | 1, 0, 6
        | 2, 9, 18
        | 2, 23, 57
        | 3, 21, 89
        | 3, 23, 56
        | 4, 9, 30
        | 4, 0, 61
        | 4, 5, 11
        | 5, 5, 90
        | 5, 1, 13
        | 5, 1, 22
        | 5, 3, 19
        | 6, 5, 75
        | 6, 7, 15
        | 7, 4, 99
        | 8, 3, 52
        | 8, 6, 96
        | 9, 7, 46
        | 10, 3, 92
        | 11, 1, 76
        | 12, 0, 81
        | 12, 0, 38
        | 12, 1, 74
        | 12, 2, 17
        | 12, 0, 72
        | 13, 0, 82
        | 14, 0, 24
        | 15, 1, 101
        | 15, 0, 21
        | 15, 4, 75
        | 16, 14, 94
        | 16, -2, 36
        | 17, 3, 38
        | 17, -465, 12
        | 17, 3, 81
        | 18, 4, 53
        | 18, 15, 95
        | 18, -556, 2
        | 18, 2, 78
        | 18, -5, 54
        | 19, 0, 22
        | 20, 10, 101
        | 20, 17, 89
        | 20, -721, 8
        | 20, -370, 56
        | 20, -668, 39
        | 21, 7, 75
        | 21, -475, 15
        | 21, 6, 101
        | 22, 7, 90
        | 22, 6, 34
        | 22, 7, 70
        | 23, 7, 90
        | 23, 14, 16
        | 24, 27, 51
        | 24, 9, 49
        | 24, 6, 78
        | 24, 6, 69
        | 25, 15, 93
        | 26, -724, 80
        | 26, 2, 20
        | 26, 11, 88
        | 27, 0, 43
        | 27, 0, 20
        | 27, 4, 38
        | 28, 2, 23
        | 28, 4, 91
        | 28, -2, 67
        | 29, 21, 58
        | 29, 22, 48
        | 29, 20, 42
        | 30, -1, 40
        | 30, 5, 31
        | 31, 27, 11
        | 31, 0, 47
        | 31, -4, 76
        | 32, 7, 102
        | 32, 2, 61
        | 33, 0, 67
        | 33, 14, 91
        | 34, 0, 28
        | 34, 3, 37
        | 35, 3, 89
        | 35, -684, 80
        | 35, 1, 20
        | 36, 11, 90
        | 36, 18, 67
        | 36, 7, 82
        | 37, -1, 28
        | 37, 18, 100
        | 37, 8, 48
        | 38, 5, 81
        | 39, 3, 42
        | 39, 3, 26
        | 39, 0, 62
        | 39, 0, 86
        | 40, 17, 11
        | 40, 0, 76
        | 40, 21, 61
        | 40, -1, 31
        | 40, 9, 97
        | 41, 0, 91
        | 42, 25, 53
        | 42, -9, 80
        | 42, 6, 73
        | 42, 16, 54
        | 42, -446, 62
        | 42, 28, 35
        | 42, 0, 84
        | 43, -548, 57
        | 43, 5, 83
        | 43, 0, 18
        | 44, 13, 53
        | 44, 16, 54
        | 44, -606, 27
        | 45, -1, 14
        | 45, 8, 54
        | 46, 0, 27
        | 46, 0, 73
        | 47, 13, 97
        | 47, 4, 76
        | 47, 0, 61
        | 47, 4, 11
        | 48, 1, 100
        | 48, 7, 102
        | 49, 9, 35
        | 49, 0, 26
        | 49, -542, 86
        | 50, 26, 55
        | 50, -5, 53
        | 50, 21, 86
        | 50, 12, 66
        | 51, 2, 66
        | 51, 4, 42
        | 52, 1, 54
        | 52, 0, 53
        | 52, 3, 100
        | 52, 2, 65
        | 53, -2, 20
        | 53, 10, 83
        | 53, -414, 73
        | 54, 11, 73
        | 54, -3, 83
        | 54, -535, 26
        | 55, 10, 59
        | 56, 0, 63
        | 56, 0, 89
        | 57, -583, 2
        | 57, 0, 43
        | 58, -1, 45
        | 59, -449, 65
        | 59, 5, 73
        | 59, 11, 80
        | 60, 4, 89
        | 60, 0, 85
        | 61, 8, 102
        | 61, -5, 97
        | 62, 0, 25
        | 63, -1, 89
        | 63, 11, 60
        | 63, -1, 20
        | 64, 6, 71
        | 64, -1, 36
        | 65, 0, 68
        | 65, 0, 39
        | 65, 0, 60
        | 66, -690, 87
        | 66, 15, 54
        | 67, 1, 94
        | 67, 6, 13
        | 67, 1, 41
        | 67, -3, 100
        | 67, 18, 82
        | 68, 5, 51
        | 69, 0, 54
        | 69, -1, 101
        | 69, 2, 96
        | 70, -3, 64
        | 71, -1, 34
        | 72, -538, 10
        | 72, 5, 74
        | 73, 12, 89
        | 73, 4, 83
        | 73, -485, 9
        | 73, -695, 46
        | 73, -419, 54
        | 73, -4, 78
        | 74, 5, 17
        | 74, 21, 81
        | 75, 16, 101
        | 76, 0, 32
        | 76, 1, 97
        | 77, 9, 78
        | 77, 19, 87
        | 78, -658, 65
        | 78, -745, 8
        | 78, -1, 89
        | 78, -4, 83
        | 78, -2, 53
        | 78, 2, 20
        | 78, 19, 35
        | 79, -1, 66
        | 79, -429, 69
        | 80, 27, 66
        | 80, 5, 86
        | 80, 7, 88
        | 81, -598, 38
        | 81, 9, 102
        | 81, 2, 98
        | 81, -288, 10
        | 82, 15, 94
        | 82, 7, 100
        | 83, -395, 53
        | 83, -624, 96
        | 83, -7, 35
        | 83, -393, 80
        | 83, -713, 57
        | 83, 15, 89
        | 84, 11, 50
        | 84, -483, 77
        | 84, 0, 79
        | 85, -1, 89
        | 85, 12, 20
        | 85, 1, 35
        | 85, 9, 101
        | 86, -704, 50
        | 86, -4, 89
        | 86, 16, 49
        | 86, -608, 80
        | 86, -495, 51
        | 86, 16, 35
        | 87, 4, 94
        | 87, 11, 68
        | 88, 24, 79
        | 88, -371, 29
        | 88, 13, 35
        | 88, -3, 78
        | 88, -2, 101
        | 88, -399, 39
        | 89, -419, 50
        | 89, -541, 63
        | 89, 23, 101
        | 89, -723, 49
        | 90, 11, 41
        | 90, 12, 48
        | 90, 7, 33
        | 91, 18, 48
        | 91, 5, 100
        | 92, 3, 38
        | 92, 9, 12
        | 92, 2, 72
        | 93, 0, 29
        | 93, 6, 26
        | 94, 3, 48
        | 94, -1, 100
        | 94, 1, 41
        | 95, 25, 44
        | 95, 1, 78
        | 95, 19, 54
        | 96, 0, 91
        | 96, 3, 87
        | 96, -5, 77
        | 96, -430, 52
        | 97, 4, 102
        | 98, -653, 12
        | 98, -528, 92
        | 98, 6, 102
        | 98, -487, 27
        | 99, 7, 102
        | 100, 3, 102
        | 101, -453, 43
        | 101, -620, 6
        | 101, -465, 21
        | 101, 4, 102
        | 101, -425, 46
        | 101, -567, 8
        | 101, -478, 15 |];
